NAME: tsp40_10
COMMENT: 40-tsp problem (Padberg/Rinaldi)
TYPE: TSP
DIMENSION: 40
EDGE_WEIGHT_TYPE : EUC_2D
NODE_COORD_SECTION
1 2 39
2 27 25
3 21 0
4 31 5
5 36 15
6 28 37
7 8 2
8 29 22
9 24 29
10 29 17
11 10 39
12 34 25
13 22 7
14 40 9
15 32 24
16 18 31
17 11 32
18 13 18
19 14 31
20 15 14
21 13 31
22 15 35
23 30 13
24 30 32
25 32 39
26 37 31
27 11 23
28 19 39
29 38 1
30 32 14
31 18 28
32 15 4
33 32 38
34 5 36
35 13 11
36 8 5
37 4 37
38 15 2
39 32 1
40 31 38
